(set-logic ALL)
(declare-fun i1 () Int)
(declare-fun it93 () Int)
(declare-fun it15 () Int)
(declare-fun it94 () Int)
(declare-fun it14 () Int)
(declare-fun it95 () Int)
(declare-fun it96 () Int)
(declare-fun it13 () Int)
(declare-fun bt113 () Bool)
(declare-fun bt114 () Bool)
(declare-fun bt115 () Bool)
(declare-fun bt116 () Bool)
(declare-fun it16 () Int)
(declare-fun it17 () Int)
(declare-fun it18 () Int)
(declare-fun bt25 () Bool)
(declare-fun bt28 () Bool)
(declare-fun bt26 () Bool)
(declare-fun bt27 () Bool)
(declare-fun it100 () Int)
(declare-fun it101 () Int)
(declare-fun it102 () Int)
(declare-fun it103 () Int)
(declare-fun bt117 () Bool)
(declare-fun bt118 () Bool)
(declare-fun bt119 () Bool)
(declare-fun bt120 () Bool)
(declare-fun it155 () Int)
(declare-fun it157 () Int)
(declare-fun it158 () Int)
(declare-fun it159 () Int)
(declare-fun it160 () Int)
(declare-fun bt181 () Bool)
(declare-fun bt182 () Bool)
(declare-fun bt183 () Bool)
(declare-fun bt184 () Bool)
(declare-fun bt122 () Bool)
(declare-fun it104 () Int)
(declare-fun it105 () Int)
(declare-fun bt121 () Bool)
(declare-fun it106 () Int)
(declare-fun bt123 () Bool)
(declare-fun bt124 () Bool)
(assert (= (+ i1 (- 1)) 0))
(assert (= (+ it93 (- 2)) 0))
(assert (= (+ it94 (* it15 (- 1))) 0))
(assert (= (+ it95 (* it14 (- 1))) 0))
(assert (= (+ (* it13 (- 1)) it96) 0))
(assert (or (not bt113) (and false bt113)))
(assert (or bt114 (and false (not bt114))))
(assert (or (not bt115) (and false bt115)))
(assert (or (not bt116) (and false bt116)))
(assert (and bt27
     (not bt26)
     (not bt28)
     (not bt25)
     (= (+ it18 (- 1)) 0)
     bt114
     (not bt115)
     (= (+ it93 (- 2)) 0)
     (= (+ it95 (* it17 (- 1))) 0)
     (not bt116)
     (not bt113)
     (= (+ (* it16 (- 1)) it96) 0)))
(assert (= (+ it100 (- 2)) 0))
(assert (= (+ (* it18 (- 1)) it101) 0))
(assert (= (+ it102 (* it17 (- 1))) 0))
(assert (= (+ (* it16 (- 1)) it103) 0))
(assert (or (and (not bt27) (not bt117)) (and bt27 bt117)))
(assert (or (and (not bt28) (not bt118)) (and bt28 bt118)))
(assert (or (and bt26 bt119) (and (not bt26) (not bt119))))
(assert (or (and bt25 bt120) (and (not bt25) (not bt120))))
(assert (let ((a!1 (+ (+ 0 it103)
              (* (exp 2 (+ it155 (- 1))) (+ 0 it101) (+ 0 (- 1))))))
  (and (not bt120)
       (>= (+ (* it100 (- 1)) 2) 0)
       (>= (+ it100 (- 2)) 0)
       bt117
       (> a!1 (+ 0 0))
       (> (+ it103 (* it101 (- 1))) 0)
       (not bt118)
       (not bt119)
       (> it102 0)
       (>= (+ it155 (- 1)) 0))))
(assert (= (+ it157 (* it100 (- 1))) 0))
(assert (= (+ (* (exp 2 it155) (+ 0 it101) (+ 0 (- 1))) (+ 0 it158))
   (+ 0 0)))
(assert (= (+ it159 (* it102 (- 1))) 0))
(assert (= (+ it160 (* it103 (- 1))) 0))
(assert (or (and false (not bt181)) bt181))
(assert (or (and false bt182) (not bt182)))
(assert (or (not bt183) (and false bt183)))
(assert (or (and false bt184) (not bt184)))
(assert (let ((a!1 (and bt124 (not bt123) (= (+ it160 (* it106 (- 1))) 0)))
      (a!4 (and bt122 bt123 (not bt124) (= (+ it160 (* it106 (- 1))) 0)))
      (a!6 (and bt123 (not bt124) (= (+ it160 (* it106 (- 1))) 0)))
      (a!11 (and bt122 (not bt124) (not bt123) (= (+ it160 (* it106 (- 1))) 0)))
      (a!14 (and (not bt124)
                 (not bt123)
                 (= (+ it160 (* it106 (- 1))) 0)
                 (not bt121)
                 (= (+ it159 (* it105 (- 1))) 0)
                 (= (+ (* it104 (- 1)) it158) 0)
                 (not bt122)))
      (a!16 (and bt122 bt124 (not bt123) (= (+ it160 (* it106 (- 1))) 0))))
(let ((a!2 (and a!1
                (not bt121)
                (= (+ it159 (* it105 (- 1))) 0)
                (= (+ (* it104 (- 1)) it158) 0)
                (not bt122)))
      (a!5 (and a!4
                (not bt121)
                (= (+ it159 (* it105 (- 1))) 0)
                (= (+ (* it104 (- 1)) it158) 0)))
      (a!7 (and a!6 bt121 (= (+ it159 (* it105 (- 1))) 0)))
      (a!10 (and a!4
                 bt121
                 (= (+ it159 (* it105 (- 1))) 0)
                 (= (+ (* it104 (- 1)) (* it158 3)) 0)))
      (a!12 (and a!11
                 bt121
                 (= (+ it159 (* it105 (- 1))) 0)
                 (= (+ (* it104 (- 1)) it158) 0)))
      (a!15 (and a!6
                 (not bt121)
                 (= (+ it159 (* it105 (- 1))) 0)
                 (= (+ (* it104 (- 1)) it158) 0)
                 (not bt122)))
      (a!17 (and a!16
                 bt121
                 (= (+ it159 (* it105 (- 1))) 0)
                 (= (+ (* it104 (- 1)) it158) 0)))
      (a!18 (and (and a!11 (not bt121))
                 (= (+ it159 (* it105 (- 1))) 0)
                 (= (+ (* it104 (- 1)) it158) 0)))
      (a!19 (and (and a!11 (not bt121))
                 (= (+ it104 (- 1)) 0)
                 (= (+ it159 (* it105 (- 1))) 0)))
      (a!20 (and a!1
                 bt121
                 (= (+ it159 (* it105 (- 1))) 0)
                 (= (+ (* it104 (- 1)) it158) 0)
                 (not bt122)))
      (a!21 (and a!16
                 (not bt121)
                 (= (+ it159 (* it105 (- 1))) 0)
                 (= (+ (* it104 (- 1)) it158) 0))))
(let ((a!3 (or (or bt182 bt184)
               (> (+ it160 (* it158 (- 1))) 0)
               a!2
               bt183
               (not bt181)))
      (a!8 (and a!7 (= (+ (* it104 (- 1)) (* it158 2)) 0) (not bt122)))
      (a!9 (and a!7 (= (+ (* it104 (- 1)) it158) 0) (not bt122)))
      (a!13 (or (or (or bt182 bt184) bt183)
                (<= (+ it160 (* it158 (- 1))) 0)
                (not bt181)
                a!12)))
  (and a!3
       (or (> it159 0) (not bt182) bt184 a!5 bt183 (not bt181))
       (or (or (not bt183) bt182 bt184) a!8 bt181)
       (or (or (not bt183) (not bt182) bt184) a!9 (not bt181))
       (or (or (not bt183) bt182 bt184) a!10 (not bt181))
       a!13
       (or (or bt182 (not bt184)) bt183 a!14 (not bt181))
       (or (or (not bt182) bt184 bt183) a!15 (<= it159 0) (not bt181))
       (or (or bt182 (not bt184)) (> it158 0) bt183 bt181 a!17)
       (or (or (not bt183) (not bt182) bt184) a!18 bt181)
       (or (or (not bt182) bt184 bt183) a!19 bt181)
       (or bt182 (<= it158 0) (not bt184) a!20 bt183 bt181)
       (= (+ it157 (- 2)) 0)
       (or (or (not bt182) (not bt184)) a!21 bt183 bt181)
       (or (or (not bt182) (not bt184)) bt183 a!17 (not bt181))
       (or (or (or bt182 bt184) bt183) bt181 a!14))))))
(check-sat)
